PROBLEM NAME: eil51_n18
KNAPSACK DATA TYPE: uncorrelated, similar weights
DIMENSION: 18
NUMBER OF ITEMS: 17
CAPACITY OF KNAPSACK: 154619
MIN SPEED: 0.1
MAX SPEED: 1
RENTING RATIO: 1.69
EDGE_WEIGHT_TYPE: CEIL_2D
NODE_COORD_SECTION	(INDEX, X, Y):
1	37	52
2	49	49
3	20	26
4	21	47
5	17	63
6	31	62
7	51	21
8	42	41
9	31	32
10	27	23
11	17	33
12	7	38
13	58	27
14	38	46
15	32	22
16	5	6
17	25	55
18	48	28
ITEMS SECTION	(INDEX, PROFIT, WEIGHT, ASSIGNED NODE NUMBER):
1	955	100045	14
2	901	100058	8
3	845	100014	2
4	795	100036	13
5	738	100006	7
6	715	100033	18
7	574	100043	9
8	485	100093	15
9	421	100091	10
10	326	100005	16
11	322	100048	3
12	252	100021	11
13	248	100015	12
14	122	100066	4
15	94	100097	17
16	43	100056	5
17	9	100090	6
